i = {"R","P","C", "N"};
j = {"L","M","W"};
n = {"1","2","3","4","5","6","7","8","9","10","11","12","13","14","15","16","17","18","19","20"};
k = {"1","2","3","4"};

//Horas máx x semana
Costo = [5000 4000 3600 6000 2000 3000 7000 8000 5600 6000 5000 10000 4000 3600 6000 5000 3000 7000 8000 5600];
